50

99 25 222
96 15 441
94 30 214
93 20 456
93 17 437
91 1 332
87 26 358
87 3 358
87 13 549
84 18 563
84 32 291
83 32 293
83 33 210
83 31 508
83 5 286
83 24 319
82 2 403
81 39 489
81 27 558
78 30 345
77 37 420
77 36 558
77 8 536
76 3 512
67 23 580
65 24 286
61 13 456
61 15 511
59 9 443
58 3 345
53 27 357
53 12 218
50 11 566
49 6 322
48 7 552
47 23 404
47 24 219
46 3 472
46 6 470
44 18 293
43 6 514
42 18 266
41 21 536
41 15 310
38 1 297
35 6 365
34 10 539
32 4 236
32 11 238
31 15 591
